p ds 992 1921
1 33
1 2
2 34
2 3
3 35
3 4
4 36
4 5
5 37
5 6
6 38
6 7
7 39
7 8
8 9
8 40
9 41
9 10
10 42
10 11
11 43
11 12
12 44
12 13
13 45
13 14
14 46
14 15
15 47
15 16
16 17
16 48
17 49
17 18
18 50
18 19
19 51
19 20
20 52
20 21
21 53
21 22
22 54
22 23
23 55
23 24
24 25
24 56
25 57
25 26
26 58
26 27
27 59
27 28
28 60
28 29
29 61
29 30
30 62
30 31
31 63
31 32
32 64
33 34
33 65
34 35
34 66
35 36
35 67
36 68
36 37
37 38
37 69
38 70
38 39
39 71
39 40
40 41
40 72
41 42
41 73
42 43
42 74
43 44
43 75
44 76
44 45
45 46
45 77
46 78
46 47
47 79
47 48
48 49
48 80
49 50
49 81
50 51
50 82
51 52
51 83
52 84
52 53
53 54
53 85
54 86
54 55
55 87
55 56
56 57
56 88
57 58
57 89
58 59
58 90
59 60
59 91
60 92
60 61
61 62
61 93
62 94
62 63
63 95
63 64
64 96
65 66
65 97
66 67
66 98
67 68
67 99
68 100
68 69
69 101
69 70
70 102
70 71
71 103
71 72
72 73
72 104
73 74
73 105
74 75
74 106
75 76
75 107
76 108
76 77
77 109
77 78
78 110
78 79
79 111
79 80
80 81
80 112
81 82
81 113
82 83
82 114
83 84
83 115
84 116
84 85
85 117
85 86
86 118
86 87
87 119
87 88
88 89
88 120
89 90
89 121
90 91
90 122
91 92
91 123
92 124
92 93
93 125
93 94
94 126
94 95
95 127
95 96
96 128
97 98
97 129
98 99
98 130
99 100
99 131
100 101
100 132
101 133
101 102
102 103
102 134
103 135
103 104
104 105
104 136
105 106
105 137
106 107
106 138
107 108
107 139
108 109
108 140
109 141
109 110
110 111
110 142
111 143
111 112
112 113
112 144
113 114
113 145
114 115
114 146
115 116
115 147
116 117
116 148
117 149
117 118
118 119
118 150
119 151
119 120
120 121
120 152
121 122
121 153
122 123
122 154
123 124
123 155
124 125
124 156
125 157
125 126
126 127
126 158
127 159
127 128
128 160
129 130
129 161
130 131
130 162
131 163
131 132
132 133
132 164
133 165
133 134
134 135
134 166
135 167
135 136
136 137
136 168
137 138
137 169
138 139
138 170
139 171
139 140
140 141
140 172
141 173
141 142
142 143
142 174
143 175
143 144
144 145
144 176
145 146
145 177
146 147
146 178
147 179
147 148
148 149
148 180
149 181
149 150
150 151
150 182
151 183
151 152
152 153
152 184
153 154
153 185
154 155
154 186
155 187
155 156
156 157
156 188
157 189
157 158
158 159
158 190
159 191
159 160
160 192
161 162
161 193
162 163
162 194
163 164
163 195
164 165
164 196
165 197
165 166
166 198
166 167
167 199
167 168
168 169
168 200
169 170
169 201
170 171
170 202
171 172
171 203
172 173
172 204
173 205
173 174
174 206
174 175
175 207
175 176
176 177
176 208
177 178
177 209
178 179
178 210
179 180
179 211
180 181
180 212
181 213
181 182
182 214
182 183
183 215
183 184
184 185
184 216
185 186
185 217
186 187
186 218
187 188
187 219
188 189
188 220
189 221
189 190
190 222
190 191
191 223
191 192
192 224
193 194
193 225
194 195
194 226
195 227
195 196
196 197
196 228
197 229
197 198
198 230
198 199
199 231
199 200
200 201
200 232
201 202
201 233
202 203
202 234
203 235
203 204
204 205
204 236
205 237
205 206
206 238
206 207
207 239
207 208
208 209
208 240
209 210
209 241
210 211
210 242
211 243
211 212
212 213
212 244
213 245
213 214
214 246
214 215
215 247
215 216
216 217
216 248
217 218
217 249
218 219
218 250
219 251
219 220
220 221
220 252
221 253
221 222
222 254
222 223
223 255
223 224
224 256
225 226
225 257
226 227
226 258
227 259
227 228
228 260
228 229
229 261
229 230
230 262
230 231
231 263
231 232
232 233
232 264
233 234
233 265
234 235
234 266
235 267
235 236
236 268
236 237
237 269
237 238
238 270
238 239
239 271
239 240
240 241
240 272
241 242
241 273
242 243
242 274
243 275
243 244
244 276
244 245
245 277
245 246
246 278
246 247
247 279
247 248
248 249
248 280
249 250
249 281
250 251
250 282
251 283
251 252
252 284
252 253
253 285
253 254
254 286
254 255
255 287
255 256
256 288
257 258
257 289
258 259
258 290
259 260
259 291
260 292
260 261
261 262
261 293
262 294
262 263
263 295
263 264
264 265
264 296
265 266
265 297
266 267
266 298
267 268
267 299
268 300
268 269
269 270
269 301
270 302
270 271
271 303
271 272
272 273
272 304
273 274
273 305
274 275
274 306
275 276
275 307
276 308
276 277
277 278
277 309
278 310
278 279
279 311
279 280
280 281
280 312
281 282
281 313
282 283
282 314
283 284
283 315
284 316
284 285
285 286
285 317
286 318
286 287
287 319
287 288
288 320
289 290
289 321
290 291
290 322
291 292
291 323
292 324
292 293
293 294
293 325
294 326
294 295
295 327
295 296
296 297
296 328
297 298
297 329
298 299
298 330
299 300
299 331
300 332
300 301
301 302
301 333
302 334
302 303
303 335
303 304
304 305
304 336
305 306
305 337
306 307
306 338
307 308
307 339
308 340
308 309
309 310
309 341
310 342
310 311
311 343
311 312
312 313
312 344
313 314
313 345
314 315
314 346
315 316
315 347
316 348
316 317
317 318
317 349
318 350
318 319
319 351
319 320
320 352
321 322
321 353
322 323
322 354
323 324
323 355
324 356
324 325
325 357
325 326
326 358
326 327
327 359
327 328
328 329
328 360
329 330
329 361
330 331
330 362
331 332
331 363
332 364
332 333
333 365
333 334
334 366
334 335
335 367
335 336
336 337
336 368
337 338
337 369
338 339
338 370
339 340
339 371
340 372
340 341
341 373
341 342
342 374
342 343
343 375
343 344
344 345
344 376
345 346
345 377
346 347
346 378
347 348
347 379
348 380
348 349
349 381
349 350
350 382
350 351
351 383
351 352
352 384
353 354
353 385
354 355
354 386
355 356
355 387
356 357
356 388
357 389
357 358
358 359
358 390
359 391
359 360
360 361
360 392
361 362
361 393
362 363
362 394
363 364
363 395
364 365
364 396
365 397
365 366
366 367
366 398
367 399
367 368
368 369
368 400
369 370
369 401
370 371
370 402
371 372
371 403
372 373
372 404
373 405
373 374
374 375
374 406
375 407
375 376
376 377
376 408
377 378
377 409
378 379
378 410
379 380
379 411
380 381
380 412
381 413
381 382
382 383
382 414
383 415
383 384
384 416
385 386
385 417
386 387
386 418
387 419
387 388
388 389
388 420
389 421
389 390
390 391
390 422
391 423
391 392
392 393
392 424
393 394
393 425
394 395
394 426
395 427
395 396
396 397
396 428
397 429
397 398
398 399
398 430
399 431
399 400
400 401
400 432
401 402
401 433
402 403
402 434
403 435
403 404
404 405
404 436
405 437
405 406
406 407
406 438
407 439
407 408
408 409
408 440
409 410
409 441
410 411
410 442
411 443
411 412
412 413
412 444
413 445
413 414
414 415
414 446
415 447
415 416
416 448
417 418
417 449
418 419
418 450
419 420
419 451
420 421
420 452
421 453
421 422
422 454
422 423
423 455
423 424
424 425
424 456
425 426
425 457
426 427
426 458
427 428
427 459
428 429
428 460
429 461
429 430
430 462
430 431
431 463
431 432
432 433
432 464
433 434
433 465
434 435
434 466
435 436
435 467
436 437
436 468
437 469
437 438
438 470
438 439
439 471
439 440
440 441
440 472
441 442
441 473
442 443
442 474
443 444
443 475
444 445
444 476
445 477
445 446
446 478
446 447
447 479
447 448
448 480
449 450
449 481
450 451
450 482
451 483
451 452
452 453
452 484
453 485
453 454
454 486
454 455
455 487
455 456
456 457
456 488
457 458
457 489
458 459
458 490
459 491
459 460
460 461
460 492
461 493
461 462
462 494
462 463
463 495
463 464
464 465
464 496
465 466
465 497
466 467
466 498
467 499
467 468
468 469
468 500
469 501
469 470
470 502
470 471
471 503
471 472
472 473
472 504
473 474
473 505
474 475
474 506
475 507
475 476
476 477
476 508
477 509
477 478
478 510
478 479
479 511
479 480
480 512
481 482
481 513
482 483
482 514
483 515
483 484
484 516
484 485
485 517
485 486
486 518
486 487
487 519
487 488
488 489
488 520
489 490
489 521
490 491
490 522
491 523
491 492
492 524
492 493
493 525
493 494
494 526
494 495
495 527
495 496
496 497
496 528
497 498
497 529
498 499
498 530
499 531
499 500
500 532
500 501
501 533
501 502
502 534
502 503
503 535
503 504
504 505
504 536
505 506
505 537
506 507
506 538
507 539
507 508
508 540
508 509
509 541
509 510
510 542
510 511
511 543
511 512
512 544
513 514
513 545
514 515
514 546
515 516
515 547
516 548
516 517
517 518
517 549
518 550
518 519
519 551
519 520
520 521
520 552
521 522
521 553
522 523
522 554
523 524
523 555
524 556
524 525
525 526
525 557
526 558
526 527
527 559
527 528
528 529
528 560
529 530
529 561
530 531
530 562
531 532
531 563
532 564
532 533
533 534
533 565
534 566
534 535
535 567
535 536
536 537
536 568
537 538
537 569
538 539
538 570
539 540
539 571
540 572
540 541
541 542
541 573
542 574
542 543
543 575
543 544
544 576
545 546
545 577
546 547
546 578
547 548
547 579
548 580
548 549
549 550
549 581
550 582
550 551
551 583
551 552
552 553
552 584
553 554
553 585
554 555
554 586
555 556
555 587
556 588
556 557
557 558
557 589
558 590
558 559
559 591
559 560
560 561
560 592
561 562
561 593
562 563
562 594
563 564
563 595
564 596
564 565
565 566
565 597
566 598
566 567
567 599
567 568
568 569
568 600
569 570
569 601
570 571
570 602
571 572
571 603
572 604
572 573
573 574
573 605
574 606
574 575
575 607
575 576
576 608
577 578
577 609
578 579
578 610
579 580
579 611
580 612
580 581
581 613
581 582
582 614
582 583
583 615
583 584
584 585
584 616
585 586
585 617
586 587
586 618
587 588
587 619
588 620
588 589
589 621
589 590
590 622
590 591
591 623
591 592
592 593
592 624
593 594
593 625
594 595
594 626
595 596
595 627
596 628
596 597
597 629
597 598
598 630
598 599
599 631
599 600
600 601
600 632
601 602
601 633
602 603
602 634
603 604
603 635
604 636
604 605
605 637
605 606
606 638
606 607
607 639
607 608
608 640
609 610
609 641
610 611
610 642
611 612
611 643
612 613
612 644
613 645
613 614
614 615
614 646
615 647
615 616
616 617
616 648
617 618
617 649
618 619
618 650
619 620
619 651
620 621
620 652
621 653
621 622
622 623
622 654
623 655
623 624
624 625
624 656
625 626
625 657
626 627
626 658
627 628
627 659
628 629
628 660
629 661
629 630
630 631
630 662
631 663
631 632
632 633
632 664
633 634
633 665
634 635
634 666
635 636
635 667
636 637
636 668
637 669
637 638
638 639
638 670
639 671
639 640
640 672
641 642
641 673
642 643
642 674
643 675
643 644
644 645
644 676
645 677
645 646
646 647
646 678
647 679
647 648
648 649
648 680
649 650
649 681
650 651
650 682
651 683
651 652
652 653
652 684
653 685
653 654
654 655
654 686
655 687
655 656
656 657
656 688
657 658
657 689
658 659
658 690
659 691
659 660
660 661
660 692
661 693
661 662
662 663
662 694
663 695
663 664
664 665
664 696
665 666
665 697
666 667
666 698
667 699
667 668
668 669
668 700
669 701
669 670
670 671
670 702
671 703
671 672
672 704
673 674
673 705
674 675
674 706
675 676
675 707
676 677
676 708
677 709
677 678
678 710
678 679
679 711
679 680
680 681
680 712
681 682
681 713
682 683
682 714
683 684
683 715
684 685
684 716
685 717
685 686
686 718
686 687
687 719
687 688
688 689
688 720
689 690
689 721
690 691
690 722
691 692
691 723
692 693
692 724
693 725
693 694
694 726
694 695
695 727
695 696
696 697
696 728
697 698
697 729
698 699
698 730
699 700
699 731
700 701
700 732
701 733
701 702
702 734
702 703
703 735
703 704
704 736
705 706
705 737
706 707
706 738
707 739
707 708
708 709
708 740
709 741
709 710
710 742
710 711
711 743
711 712
712 713
712 744
713 714
713 745
714 715
714 746
715 747
715 716
716 717
716 748
717 749
717 718
718 750
718 719
719 751
719 720
720 721
720 752
721 722
721 753
722 723
722 754
723 755
723 724
724 725
724 756
725 757
725 726
726 758
726 727
727 759
727 728
728 729
728 760
729 730
729 761
730 731
730 762
731 763
731 732
732 733
732 764
733 765
733 734
734 766
734 735
735 767
735 736
736 768
737 738
737 769
738 739
738 770
739 771
739 740
740 772
740 741
741 773
741 742
742 774
742 743
743 775
743 744
744 745
744 776
745 746
745 777
746 747
746 778
747 779
747 748
748 780
748 749
749 781
749 750
750 782
750 751
751 783
751 752
752 753
752 784
753 754
753 785
754 755
754 786
755 787
755 756
756 788
756 757
757 789
757 758
758 790
758 759
759 791
759 760
760 761
760 792
761 762
761 793
762 763
762 794
763 795
763 764
764 796
764 765
765 797
765 766
766 798
766 767
767 799
767 768
768 800
769 770
769 801
770 771
770 802
771 772
771 803
772 804
772 773
773 774
773 805
774 806
774 775
775 807
775 776
776 777
776 808
777 778
777 809
778 779
778 810
779 780
779 811
780 812
780 781
781 782
781 813
782 814
782 783
783 815
783 784
784 785
784 816
785 786
785 817
786 787
786 818
787 788
787 819
788 820
788 789
789 790
789 821
790 822
790 791
791 823
791 792
792 793
792 824
793 794
793 825
794 795
794 826
795 796
795 827
796 828
796 797
797 798
797 829
798 830
798 799
799 831
799 800
800 832
801 802
801 833
802 803
802 834
803 804
803 835
804 836
804 805
805 806
805 837
806 838
806 807
807 839
807 808
808 809
808 840
809 810
809 841
810 811
810 842
811 812
811 843
812 844
812 813
813 814
813 845
814 846
814 815
815 847
815 816
816 817
816 848
817 818
817 849
818 819
818 850
819 820
819 851
820 852
820 821
821 822
821 853
822 854
822 823
823 855
823 824
824 825
824 856
825 826
825 857
826 827
826 858
827 828
827 859
828 860
828 829
829 830
829 861
830 862
830 831
831 863
831 832
832 864
833 834
833 865
834 835
834 866
835 836
835 867
836 868
836 837
837 869
837 838
838 870
838 839
839 871
839 840
840 841
840 872
841 842
841 873
842 843
842 874
843 844
843 875
844 876
844 845
845 877
845 846
846 878
846 847
847 879
847 848
848 849
848 880
849 850
849 881
850 851
850 882
851 852
851 883
852 884
852 853
853 885
853 854
854 886
854 855
855 887
855 856
856 857
856 888
857 858
857 889
858 859
858 890
859 860
859 891
860 892
860 861
861 893
861 862
862 894
862 863
863 895
863 864
864 896
865 866
865 897
866 867
866 898
867 868
867 899
868 869
868 900
869 901
869 870
870 871
870 902
871 903
871 872
872 873
872 904
873 874
873 905
874 875
874 906
875 876
875 907
876 877
876 908
877 909
877 878
878 879
878 910
879 911
879 880
880 881
880 912
881 882
881 913
882 883
882 914
883 884
883 915
884 885
884 916
885 917
885 886
886 887
886 918
887 919
887 888
888 889
888 920
889 890
889 921
890 891
890 922
891 892
891 923
892 893
892 924
893 925
893 894
894 895
894 926
895 927
895 896
896 928
897 898
897 929
898 899
898 930
899 931
899 900
900 901
900 932
901 933
901 902
902 903
902 934
903 935
903 904
904 905
904 936
905 906
905 937
906 907
906 938
907 939
907 908
908 909
908 940
909 941
909 910
910 911
910 942
911 943
911 912
912 913
912 944
913 914
913 945
914 915
914 946
915 947
915 916
916 917
916 948
917 949
917 918
918 919
918 950
919 951
919 920
920 921
920 952
921 922
921 953
922 923
922 954
923 955
923 924
924 925
924 956
925 957
925 926
926 927
926 958
927 959
927 928
928 960
929 930
929 961
930 931
930 962
931 932
931 963
932 933
932 964
933 965
933 934
934 966
934 935
935 967
935 936
936 937
936 968
937 938
937 969
938 939
938 970
939 940
939 971
940 941
940 972
941 973
941 942
942 974
942 943
943 975
943 944
944 945
944 976
945 946
945 977
946 947
946 978
947 948
947 979
948 949
948 980
949 981
949 950
950 982
950 951
951 983
951 952
952 953
952 984
953 954
953 985
954 955
954 986
955 956
955 987
956 957
956 988
957 989
957 958
958 990
958 959
959 991
959 960
960 992
961 962
962 963
963 964
964 965
965 966
966 967
967 968
968 969
969 970
970 971
971 972
972 973
973 974
974 975
975 976
976 977
977 978
978 979
979 980
980 981
981 982
982 983
983 984
984 985
985 986
986 987
987 988
988 989
989 990
990 991
991 992
